;; translated from ./ctigar/seq.c.vmt
;; original benchmark available at: https://es-static.fbk.eu/people/griggio/ic3ia/index.html
;; author: Alberto Griggio <griggio@fbk.eu>
(set-logic HORN)
(declare-fun state (Bool Bool Bool Bool Bool Int Int Int Int Int Int) Bool)
(assert (forall ((|.s.2| Bool) (|.s.3| Bool) (|.s.0| Bool) (|.s.1| Bool) (|.s.0.next| Bool) (|.s.1.next| Bool) (|.s.2.next| Bool) (|.s.3.next| Bool) (|.s.4.next| Bool) (|main.j1.next| Int) (|main.j1| Int) (|main.k.next| Int) (|main.k| Int) (|main.n0.next| Int) (|main.n0| Int) (|main.i1.next| Int) (|main.i1| Int) (|main.i0.next| Int) (|main.i0| Int) (|main.n1.next| Int) (|main.n1| Int) (|.s.4| Bool)) (=> (let ((.def_20 (not .s.4)))
(let ((.def_17 (not .s.3)))
(let ((.def_14 (not .s.2)))
(let ((.def_10 (not .s.1)))
(let ((.def_12 (and .def_10 .s.0)))
(let ((.def_15 (and .def_12 .def_14)))
(let ((.def_18 (and .def_15 .def_17)))
(let ((.def_21 (and .def_18 .def_20)))
.def_21)))))))) (state |.s.1| |.s.0| |.s.2| |.s.3| |.s.4| |main.n1| |main.i0| |main.i1| |main.n0| |main.k| |main.j1|))))
(assert (forall ((|.s.2| Bool) (|.s.3| Bool) (|.s.0| Bool) (|.s.1| Bool) (|.s.0.next| Bool) (|.s.1.next| Bool) (|.s.2.next| Bool) (|.s.3.next| Bool) (|.s.4.next| Bool) (|main.j1.next| Int) (|main.j1| Int) (|main.k.next| Int) (|main.k| Int) (|main.n0.next| Int) (|main.n0| Int) (|main.i1.next| Int) (|main.i1| Int) (|main.i0.next| Int) (|main.i0| Int) (|main.n1.next| Int) (|main.n1| Int) (|.s.4| Bool)) (=> (and (state |.s.1| |.s.0| |.s.2| |.s.3| |.s.4| |main.n1| |main.i0| |main.i1| |main.n0| |main.k| |main.j1|) (let ((.def_66 (not .s.0)))
(let ((.def_10 (not .s.1)))
(let ((.def_95 (and .def_10 .def_66)))
(let ((.def_14 (not .s.2)))
(let ((.def_96 (and .def_14 .def_95)))
(let ((.def_17 (not .s.3)))
(let ((.def_97 (and .def_17 .def_96)))
(let ((.def_20 (not .s.4)))
(let ((.def_362 (and .def_20 .def_97)))
(let ((.def_363 (not .def_362)))
(let ((.def_54 (not .s.0.next)))
(let ((.def_52 (not .s.1.next)))
(let ((.def_55 (and .def_52 .def_54)))
(let ((.def_50 (not .s.2.next)))
(let ((.def_56 (and .def_50 .def_55)))
(let ((.def_48 (not .s.3.next)))
(let ((.def_57 (and .def_48 .def_56)))
(let ((.def_46 (not .s.4.next)))
(let ((.def_58 (and .def_46 .def_57)))
(let ((.def_44 (= main.j1 main.j1.next)))
(let ((.def_59 (and .def_44 .def_58)))
(let ((.def_41 (= main.k main.k.next)))
(let ((.def_60 (and .def_41 .def_59)))
(let ((.def_38 (= main.n0 main.n0.next)))
(let ((.def_61 (and .def_38 .def_60)))
(let ((.def_35 (= main.i1 main.i1.next)))
(let ((.def_62 (and .def_35 .def_61)))
(let ((.def_32 (= main.i0 main.i0.next)))
(let ((.def_63 (and .def_32 .def_62)))
(let ((.def_29 (= main.n1 main.n1.next)))
(let ((.def_64 (and .def_29 .def_63)))
(let ((.def_364 (or .def_64 .def_363)))
(let ((.def_354 (= main.i0.next 0)))
(let ((.def_72 (and .s.1.next .def_54)))
(let ((.def_73 (and .def_50 .def_72)))
(let ((.def_74 (and .def_48 .def_73)))
(let ((.def_294 (and .def_46 .def_74)))
(let ((.def_355 (and .def_294 .def_354)))
(let ((.def_353 (= main.k.next 0)))
(let ((.def_356 (and .def_353 .def_355)))
(let ((.def_357 (and .def_44 .def_356)))
(let ((.def_358 (and .def_38 .def_357)))
(let ((.def_359 (and .def_35 .def_358)))
(let ((.def_360 (and .def_29 .def_359)))
(let ((.def_12 (and .def_10 .s.0)))
(let ((.def_15 (and .def_12 .def_14)))
(let ((.def_18 (and .def_15 .def_17)))
(let ((.def_21 (and .def_18 .def_20)))
(let ((.def_352 (not .def_21)))
(let ((.def_361 (or .def_352 .def_360)))
(let ((.def_365 (and .def_361 .def_364)))
(let ((.def_154 (and .s.2.next .def_72)))
(let ((.def_343 (and .def_48 .def_154)))
(let ((.def_344 (and .def_46 .def_343)))
(let ((.def_345 (and .def_44 .def_344)))
(let ((.def_346 (and .def_41 .def_345)))
(let ((.def_347 (and .def_38 .def_346)))
(let ((.def_348 (and .def_35 .def_347)))
(let ((.def_349 (and .def_32 .def_348)))
(let ((.def_350 (and .def_29 .def_349)))
(let ((.def_329 (<= main.n0 main.i0)))
(let ((.def_67 (and .s.1 .def_66)))
(let ((.def_68 (and .def_14 .def_67)))
(let ((.def_69 (and .def_17 .def_68)))
(let ((.def_328 (and .def_20 .def_69)))
(let ((.def_341 (and .def_328 .def_329)))
(let ((.def_342 (not .def_341)))
(let ((.def_351 (or .def_342 .def_350)))
(let ((.def_366 (and .def_351 .def_365)))
(let ((.def_135 (and .s.1.next .s.0.next)))
(let ((.def_193 (and .def_50 .def_135)))
(let ((.def_194 (and .def_48 .def_193)))
(let ((.def_333 (and .def_46 .def_194)))
(let ((.def_334 (and .def_44 .def_333)))
(let ((.def_335 (and .def_41 .def_334)))
(let ((.def_336 (and .def_38 .def_335)))
(let ((.def_337 (and .def_35 .def_336)))
(let ((.def_338 (and .def_32 .def_337)))
(let ((.def_339 (and .def_29 .def_338)))
(let ((.def_330 (not .def_329)))
(let ((.def_331 (and .def_328 .def_330)))
(let ((.def_332 (not .def_331)))
(let ((.def_340 (or .def_332 .def_339)))
(let ((.def_367 (and .def_340 .def_366)))
(let ((.def_85 (and .s.2.next .def_55)))
(let ((.def_319 (and .def_48 .def_85)))
(let ((.def_320 (and .def_46 .def_319)))
(let ((.def_316 (* (- 1) main.i0.next)))
(let ((.def_317 (+ main.i0 .def_316)))
(let ((.def_318 (= .def_317 (- 1))))
(let ((.def_321 (and .def_318 .def_320)))
(let ((.def_322 (and .def_44 .def_321)))
(let ((.def_323 (and .def_41 .def_322)))
(let ((.def_324 (and .def_38 .def_323)))
(let ((.def_325 (and .def_35 .def_324)))
(let ((.def_326 (and .def_29 .def_325)))
(let ((.def_22 (and .s.1 .s.0)))
(let ((.def_23 (and .def_14 .def_22)))
(let ((.def_24 (and .def_17 .def_23)))
(let ((.def_314 (and .def_20 .def_24)))
(let ((.def_315 (not .def_314)))
(let ((.def_327 (or .def_315 .def_326)))
(let ((.def_368 (and .def_327 .def_367)))
(let ((.def_105 (and .def_52 .s.0.next)))
(let ((.def_181 (and .s.2.next .def_105)))
(let ((.def_305 (and .def_48 .def_181)))
(let ((.def_306 (and .def_46 .def_305)))
(let ((.def_102 (* (- 1) main.k.next)))
(let ((.def_103 (+ main.k .def_102)))
(let ((.def_231 (= .def_103 (- 1))))
(let ((.def_307 (and .def_231 .def_306)))
(let ((.def_308 (and .def_44 .def_307)))
(let ((.def_309 (and .def_38 .def_308)))
(let ((.def_310 (and .def_35 .def_309)))
(let ((.def_311 (and .def_32 .def_310)))
(let ((.def_312 (and .def_29 .def_311)))
(let ((.def_167 (and .s.2 .def_95)))
(let ((.def_302 (and .def_17 .def_167)))
(let ((.def_303 (and .def_20 .def_302)))
(let ((.def_304 (not .def_303)))
(let ((.def_313 (or .def_304 .def_312)))
(let ((.def_369 (and .def_313 .def_368)))
(let ((.def_295 (and .def_44 .def_294)))
(let ((.def_296 (and .def_41 .def_295)))
(let ((.def_297 (and .def_38 .def_296)))
(let ((.def_298 (and .def_35 .def_297)))
(let ((.def_299 (and .def_32 .def_298)))
(let ((.def_300 (and .def_29 .def_299)))
(let ((.def_146 (and .def_12 .s.2)))
(let ((.def_291 (and .def_17 .def_146)))
(let ((.def_292 (and .def_20 .def_291)))
(let ((.def_293 (not .def_292)))
(let ((.def_301 (or .def_293 .def_300)))
(let ((.def_370 (and .def_301 .def_369)))
(let ((.def_283 (= main.i1.next 0)))
(let ((.def_136 (and .s.2.next .def_135)))
(let ((.def_217 (and .def_48 .def_136)))
(let ((.def_218 (and .def_46 .def_217)))
(let ((.def_284 (and .def_218 .def_283)))
(let ((.def_285 (and .def_44 .def_284)))
(let ((.def_286 (and .def_41 .def_285)))
(let ((.def_287 (and .def_38 .def_286)))
(let ((.def_288 (and .def_32 .def_287)))
(let ((.def_289 (and .def_29 .def_288)))
(let ((.def_131 (and .s.2 .def_67)))
(let ((.def_280 (and .def_17 .def_131)))
(let ((.def_281 (and .def_20 .def_280)))
(let ((.def_282 (not .def_281)))
(let ((.def_290 (or .def_282 .def_289)))
(let ((.def_371 (and .def_290 .def_370)))
(let ((.def_271 (and .s.3.next .def_193)))
(let ((.def_272 (and .def_46 .def_271)))
(let ((.def_273 (and .def_44 .def_272)))
(let ((.def_274 (and .def_41 .def_273)))
(let ((.def_275 (and .def_38 .def_274)))
(let ((.def_276 (and .def_35 .def_275)))
(let ((.def_277 (and .def_32 .def_276)))
(let ((.def_278 (and .def_29 .def_277)))
(let ((.def_256 (<= main.n1 main.i1)))
(let ((.def_116 (and .s.2 .def_22)))
(let ((.def_254 (and .def_17 .def_116)))
(let ((.def_255 (and .def_20 .def_254)))
(let ((.def_269 (and .def_255 .def_256)))
(let ((.def_270 (not .def_269)))
(let ((.def_279 (or .def_270 .def_278)))
(let ((.def_372 (and .def_279 .def_371)))
(let ((.def_260 (and .s.3.next .def_56)))
(let ((.def_261 (and .def_46 .def_260)))
(let ((.def_262 (and .def_44 .def_261)))
(let ((.def_263 (and .def_41 .def_262)))
(let ((.def_264 (and .def_38 .def_263)))
(let ((.def_265 (and .def_35 .def_264)))
(let ((.def_266 (and .def_32 .def_265)))
(let ((.def_267 (and .def_29 .def_266)))
(let ((.def_257 (not .def_256)))
(let ((.def_258 (and .def_255 .def_257)))
(let ((.def_259 (not .def_258)))
(let ((.def_268 (or .def_259 .def_267)))
(let ((.def_373 (and .def_268 .def_372)))
(let ((.def_106 (and .def_50 .def_105)))
(let ((.def_245 (and .s.3.next .def_106)))
(let ((.def_246 (and .def_46 .def_245)))
(let ((.def_242 (* (- 1) main.i1.next)))
(let ((.def_243 (+ main.i1 .def_242)))
(let ((.def_244 (= .def_243 (- 1))))
(let ((.def_247 (and .def_244 .def_246)))
(let ((.def_248 (and .def_44 .def_247)))
(let ((.def_249 (and .def_41 .def_248)))
(let ((.def_250 (and .def_38 .def_249)))
(let ((.def_251 (and .def_32 .def_250)))
(let ((.def_252 (and .def_29 .def_251)))
(let ((.def_239 (and .s.3 .def_96)))
(let ((.def_240 (and .def_20 .def_239)))
(let ((.def_241 (not .def_240)))
(let ((.def_253 (or .def_241 .def_252)))
(let ((.def_374 (and .def_253 .def_373)))
(let ((.def_229 (and .s.3.next .def_73)))
(let ((.def_230 (and .def_46 .def_229)))
(let ((.def_232 (and .def_230 .def_231)))
(let ((.def_233 (and .def_44 .def_232)))
(let ((.def_234 (and .def_38 .def_233)))
(let ((.def_235 (and .def_35 .def_234)))
(let ((.def_236 (and .def_32 .def_235)))
(let ((.def_237 (and .def_29 .def_236)))
(let ((.def_226 (and .def_15 .s.3)))
(let ((.def_227 (and .def_20 .def_226)))
(let ((.def_228 (not .def_227)))
(let ((.def_238 (or .def_228 .def_237)))
(let ((.def_375 (and .def_238 .def_374)))
(let ((.def_219 (and .def_44 .def_218)))
(let ((.def_220 (and .def_41 .def_219)))
(let ((.def_221 (and .def_38 .def_220)))
(let ((.def_222 (and .def_35 .def_221)))
(let ((.def_223 (and .def_32 .def_222)))
(let ((.def_224 (and .def_29 .def_223)))
(let ((.def_214 (and .s.3 .def_68)))
(let ((.def_215 (and .def_20 .def_214)))
(let ((.def_216 (not .def_215)))
(let ((.def_225 (or .def_216 .def_224)))
(let ((.def_376 (and .def_225 .def_375)))
(let ((.def_206 (= main.j1.next 0)))
(let ((.def_86 (and .s.3.next .def_85)))
(let ((.def_87 (and .def_46 .def_86)))
(let ((.def_207 (and .def_87 .def_206)))
(let ((.def_208 (and .def_41 .def_207)))
(let ((.def_209 (and .def_38 .def_208)))
(let ((.def_210 (and .def_35 .def_209)))
(let ((.def_211 (and .def_32 .def_210)))
(let ((.def_212 (and .def_29 .def_211)))
(let ((.def_203 (and .s.3 .def_23)))
(let ((.def_204 (and .def_20 .def_203)))
(let ((.def_205 (not .def_204)))
(let ((.def_213 (or .def_205 .def_212)))
(let ((.def_377 (and .def_213 .def_376)))
(let ((.def_195 (and .s.4.next .def_194)))
(let ((.def_196 (and .def_44 .def_195)))
(let ((.def_197 (and .def_41 .def_196)))
(let ((.def_198 (and .def_38 .def_197)))
(let ((.def_199 (and .def_35 .def_198)))
(let ((.def_200 (and .def_32 .def_199)))
(let ((.def_201 (and .def_29 .def_200)))
(let ((.def_174 (* (- 1) main.j1)))
(let ((.def_175 (+ main.n0 .def_174)))
(let ((.def_176 (+ main.n1 .def_175)))
(let ((.def_177 (<= .def_176 0)))
(let ((.def_168 (and .s.3 .def_167)))
(let ((.def_169 (and .def_20 .def_168)))
(let ((.def_191 (and .def_169 .def_177)))
(let ((.def_192 (not .def_191)))
(let ((.def_202 (or .def_192 .def_201)))
(let ((.def_378 (and .def_202 .def_377)))
(let ((.def_182 (and .s.3.next .def_181)))
(let ((.def_183 (and .def_46 .def_182)))
(let ((.def_184 (and .def_44 .def_183)))
(let ((.def_185 (and .def_41 .def_184)))
(let ((.def_186 (and .def_38 .def_185)))
(let ((.def_187 (and .def_35 .def_186)))
(let ((.def_188 (and .def_32 .def_187)))
(let ((.def_189 (and .def_29 .def_188)))
(let ((.def_178 (not .def_177)))
(let ((.def_179 (and .def_169 .def_178)))
(let ((.def_180 (not .def_179)))
(let ((.def_190 (or .def_180 .def_189)))
(let ((.def_379 (and .def_190 .def_378)))
(let ((.def_150 (<= main.k 0)))
(let ((.def_147 (and .s.3 .def_146)))
(let ((.def_148 (and .def_20 .def_147)))
(let ((.def_164 (and .def_148 .def_150)))
(let ((.def_165 (not .def_164)))
(let ((.def_75 (and .s.4.next .def_74)))
(let ((.def_76 (and .def_44 .def_75)))
(let ((.def_77 (and .def_41 .def_76)))
(let ((.def_78 (and .def_38 .def_77)))
(let ((.def_79 (and .def_35 .def_78)))
(let ((.def_80 (and .def_32 .def_79)))
(let ((.def_81 (and .def_29 .def_80)))
(let ((.def_166 (or .def_81 .def_165)))
(let ((.def_380 (and .def_166 .def_379)))
(let ((.def_155 (and .s.3.next .def_154)))
(let ((.def_156 (and .def_46 .def_155)))
(let ((.def_157 (and .def_44 .def_156)))
(let ((.def_158 (and .def_41 .def_157)))
(let ((.def_159 (and .def_38 .def_158)))
(let ((.def_160 (and .def_35 .def_159)))
(let ((.def_161 (and .def_32 .def_160)))
(let ((.def_162 (and .def_29 .def_161)))
(let ((.def_151 (not .def_150)))
(let ((.def_152 (and .def_148 .def_151)))
(let ((.def_153 (not .def_152)))
(let ((.def_163 (or .def_153 .def_162)))
(let ((.def_381 (and .def_163 .def_380)))
(let ((.def_137 (and .s.3.next .def_136)))
(let ((.def_138 (and .def_46 .def_137)))
(let ((.def_139 (and .def_44 .def_138)))
(let ((.def_140 (and .def_41 .def_139)))
(let ((.def_141 (and .def_38 .def_140)))
(let ((.def_142 (and .def_35 .def_141)))
(let ((.def_143 (and .def_32 .def_142)))
(let ((.def_144 (and .def_29 .def_143)))
(let ((.def_132 (and .s.3 .def_131)))
(let ((.def_133 (and .def_20 .def_132)))
(let ((.def_134 (not .def_133)))
(let ((.def_145 (or .def_134 .def_144)))
(let ((.def_382 (and .def_145 .def_381)))
(let ((.def_123 (and .s.4.next .def_57)))
(let ((.def_120 (* (- 1) main.j1.next)))
(let ((.def_121 (+ main.j1 .def_120)))
(let ((.def_122 (= .def_121 (- 1))))
(let ((.def_124 (and .def_122 .def_123)))
(let ((.def_125 (and .def_41 .def_124)))
(let ((.def_126 (and .def_38 .def_125)))
(let ((.def_127 (and .def_35 .def_126)))
(let ((.def_128 (and .def_32 .def_127)))
(let ((.def_129 (and .def_29 .def_128)))
(let ((.def_117 (and .s.3 .def_116)))
(let ((.def_118 (and .def_20 .def_117)))
(let ((.def_119 (not .def_118)))
(let ((.def_130 (or .def_119 .def_129)))
(let ((.def_383 (and .def_130 .def_382)))
(let ((.def_107 (and .def_48 .def_106)))
(let ((.def_108 (and .s.4.next .def_107)))
(let ((.def_104 (= .def_103 1)))
(let ((.def_109 (and .def_104 .def_108)))
(let ((.def_110 (and .def_44 .def_109)))
(let ((.def_111 (and .def_38 .def_110)))
(let ((.def_112 (and .def_35 .def_111)))
(let ((.def_113 (and .def_32 .def_112)))
(let ((.def_114 (and .def_29 .def_113)))
(let ((.def_98 (and .s.4 .def_97)))
(let ((.def_99 (not .def_98)))
(let ((.def_115 (or .def_99 .def_114)))
(let ((.def_384 (and .def_115 .def_383)))
(let ((.def_88 (and .def_44 .def_87)))
(let ((.def_89 (and .def_41 .def_88)))
(let ((.def_90 (and .def_38 .def_89)))
(let ((.def_91 (and .def_35 .def_90)))
(let ((.def_92 (and .def_32 .def_91)))
(let ((.def_93 (and .def_29 .def_92)))
(let ((.def_83 (and .def_18 .s.4)))
(let ((.def_84 (not .def_83)))
(let ((.def_94 (or .def_84 .def_93)))
(let ((.def_385 (and .def_94 .def_384)))
(let ((.def_70 (and .s.4 .def_69)))
(let ((.def_71 (not .def_70)))
(let ((.def_82 (or .def_71 .def_81)))
(let ((.def_386 (and .def_82 .def_385)))
(let ((.def_25 (and .s.4 .def_24)))
(let ((.def_26 (not .def_25)))
(let ((.def_65 (or .def_26 .def_64)))
(let ((.def_387 (and .def_65 .def_386)))
.def_387))))))))))))))))))))))))))))))))))))))))))))))))))))))))))))))))))))))))))))))))))))))))))))))))))))))))))))))))))))))))))))))))))))))))))))))))))))))))))))))))))))))))))))))))))))))))))))))))))))))))))))))))))))))))))))))))))))))))))))))))))))))))))))))))))))))))))))))))))))))))))))))))))))))))))))))))))))))))))))))))))))))))))))))))))))))))))))))) (state |.s.1.next| |.s.0.next| |.s.2.next| |.s.3.next| |.s.4.next| |main.n1.next| |main.i0.next| |main.i1.next| |main.n0.next| |main.k.next| |main.j1.next|))))
(assert (forall ((|.s.2| Bool) (|.s.3| Bool) (|.s.0| Bool) (|.s.1| Bool) (|.s.0.next| Bool) (|.s.1.next| Bool) (|.s.2.next| Bool) (|.s.3.next| Bool) (|.s.4.next| Bool) (|main.j1.next| Int) (|main.j1| Int) (|main.k.next| Int) (|main.k| Int) (|main.n0.next| Int) (|main.n0| Int) (|main.i1.next| Int) (|main.i1| Int) (|main.i0.next| Int) (|main.i0| Int) (|main.n1.next| Int) (|main.n1| Int) (|.s.4| Bool)) (=> (state |.s.1| |.s.0| |.s.2| |.s.3| |.s.4| |main.n1| |main.i0| |main.i1| |main.n0| |main.k| |main.j1|) (let ((.def_66 (not .s.0)))
(let ((.def_67 (and .s.1 .def_66)))
(let ((.def_14 (not .s.2)))
(let ((.def_68 (and .def_14 .def_67)))
(let ((.def_17 (not .s.3)))
(let ((.def_69 (and .def_17 .def_68)))
(let ((.def_70 (and .s.4 .def_69)))
(let ((.def_71 (not .def_70)))
.def_71)))))))))))
(check-sat)
